10	5
0	3	2	3	1
1	1	4
2	1	7
3	1	8
4	1	8
5	1	10
6	1	5
7	3	1	9	10
8	2	9	11
9	1	11
10	1	11
11	0
0	0	0	0	0	0	0
1	3	2	0	1	2	0
2	2	0	3	0	5	0
3	5	5	3	0	0	2
4	9	5	1	3	0	4
5	4	3	0	0	0	3
6	6	3	0	0	0	0
7	5	0	0	0	3	2
8	5	4	0	0	4	4
9	3	0	0	0	2	0
10	4	4	4	1	0	3
11	0	0	0	0	0	0
5	5	5	5	5
